data/processed_heuristic-threshold/instances/1/7/ds_1002_courier_1656/pairwise.tsp
NAME: ds_1002_courier_1656
TYPE: TSP
COMMENT: nil
DIMENSION: 8
EDGE_WEIGHT_TYPE: EXPLICIT
EDGE_WEIGHT_FORMAT: FULL_MATRIX
EDGE_WEIGHT_SECTION
9999 5455 2941 3374 36 5449 3435 5459 
5455 9999 7281 6980 5420 6 5225 6 
2941 7281 9999 939 2964 7276 2704 7286 
3374 6980 939 9999 3389 6976 2005 6985 
36 5420 2964 3389 9999 5414 3429 5424 
5449 6 7276 6976 5414 9999 5221 10 
3435 5225 2704 2005 3429 5221 9999 5230 
5459 6 7286 6985 5424 10 5230 9999 
