data/processed_heuristic-threshold/instances/1/7/ds_1002_courier_1656/pairwise.sol
8
0 4 5 7 1 6 3 2 
